CLW01
Position Depot: Random
Horizon for Depot: Large
Position of customers: Cluster
Distribution of the demand: Small
Width of time windows: Wide
Distribution of the service: Small

VEHICLE 
NUMBER 	 CAPACITY 
 8 	 	 44 
 
CUSTOMER
CUST NO. 	 XCOORD.  	 YCOORD. 	 DEMAND 	 READY TIME 	 DUE DATE 	 SERVICE TIME 
 0 	 	 239 	 	 791 	 	 0 	 	 0 	 	 4920 	 	 0 
  1 	 	 884 	 	 626 	 	 9 	 	 383 	 	 732 	 	 68 
  2 	 	 513 	 	 782 	 	 7 	 	 1041 	 	 1346 	 	 98 
  3 	 	 476 	 	 39 	 	 7 	 	 818 	 	 1062 	 	 53 
  4 	 	 652 	 	 665 	 	 5 	 	 3943 	 	 4212 	 	 81 
  5 	 	 473 	 	 631 	 	 8 	 	 1737 	 	 1964 	 	 76 
  6 	 	 851 	 	 622 	 	 9 	 	 3463 	 	 3685 	 	 100 
  7 	 	 564 	 	 877 	 	 6 	 	 3658 	 	 3891 	 	 50 
  8 	 	 872 	 	 561 	 	 6 	 	 1748 	 	 1949 	 	 84 
  9 	 	 492 	 	 661 	 	 8 	 	 3294 	 	 3538 	 	 51 
  10 	 	 677 	 	 511 	 	 8 	 	 452 	 	 658 	 	 79 
  11 	 	 535 	 	 29 	 	 5 	 	 3067 	 	 3306 	 	 57 
  12 	 	 538 	 	 615 	 	 9 	 	 3704 	 	 4035 	 	 74 
  13 	 	 640 	 	 718 	 	 6 	 	 3823 	 	 4243 	 	 51 
  14 	 	 519 	 	 612 	 	 5 	 	 4028 	 	 4228 	 	 78 
  15 	 	 826 	 	 504 	 	 7 	 	 239 	 	 718 	 	 56 
  16 	 	 876 	 	 638 	 	 5 	 	 1115 	 	 1444 	 	 57 
  17 	 	 707 	 	 816 	 	 7 	 	 1257 	 	 1532 	 	 73 
  18 	 	 797 	 	 534 	 	 9 	 	 572 	 	 837 	 	 60 
  19 	 	 491 	 	 14 	 	 10 	 	 1932 	 	 2415 	 	 66 
  20 	 	 396 	 	 57 	 	 6 	 	 2734 	 	 3034 	 	 56 
  21 	 	 662 	 	 779 	 	 5 	 	 3729 	 	 4166 	 	 54 
  22 	 	 445 	 	 35 	 	 5 	 	 2622 	 	 2849 	 	 63 
  23 	 	 511 	 	 573 	 	 7 	 	 2933 	 	 3148 	 	 60 
  24 	 	 828 	 	 626 	 	 6 	 	 2518 	 	 2812 	 	 95 
  25 	 	 700 	 	 668 	 	 9 	 	 2553 	 	 2875 	 	 90 
  26 	 	 473 	 	 745 	 	 5 	 	 3284 	 	 3521 	 	 71 
  27 	 	 499 	 	 797 	 	 7 	 	 -81 	 	 357 	 	 78 
  28 	 	 558 	 	 738 	 	 10 	 	 1121 	 	 1491 	 	 92 
  29 	 	 475 	 	 98 	 	 6 	 	 2983 	 	 3227 	 	 97 
  30 	 	 702 	 	 728 	 	 8 	 	 471 	 	 931 	 	 99 
  31 	 	 966 	 	 666 	 	 6 	 	 4109 	 	 4493 	 	 94 
  32 	 	 646 	 	 694 	 	 10 	 	 4367 	 	 4655 	 	 84 
  33 	 	 474 	 	 615 	 	 10 	 	 4523 	 	 4856 	 	 56 
  34 	 	 390 	 	 80 	 	 7 	 	 2703 	 	 3100 	 	 57 
  35 	 	 882 	 	 506 	 	 9 	 	 1743 	 	 2061 	 	 53 
  36 	 	 942 	 	 675 	 	 9 	 	 808 	 	 1285 	 	 62 
  37 	 	 635 	 	 18 	 	 10 	 	 634 	 	 955 	 	 59 
  38 	 	 483 	 	 586 	 	 6 	 	 3962 	 	 4260 	 	 67 
  39 	 	 430 	 	 44 	 	 7 	 	 1859 	 	 2252 	 	 81 
  40 	 	 441 	 	 13 	 	 5 	 	 661 	 	 884 	 	 71 
  41 	 	 423 	 	 491 	 	 9 	 	 3732 	 	 4156 	 	 62 
  42 	 	 675 	 	 713 	 	 9 	 	 1037 	 	 1378 	 	 61 
  43 	 	 496 	 	 806 	 	 8 	 	 1230 	 	 1599 	 	 96 
  44 	 	 464 	 	 779 	 	 7 	 	 686 	 	 939 	 	 72 
  45 	 	 497 	 	 67 	 	 5 	 	 601 	 	 1072 	 	 75 
  46 	 	 534 	 	 941 	 	 8 	 	 4503 	 	 4796 	 	 83 
  47 	 	 528 	 	 682 	 	 8 	 	 1724 	 	 1966 	 	 80 
  48 	 	 464 	 	 671 	 	 9 	 	 3082 	 	 3299 	 	 85 
  49 	 	 435 	 	 572 	 	 6 	 	 2498 	 	 2725 	 	 62 
  50 	 	 851 	 	 422 	 	 5 	 	 407 	 	 786 	 	 65 
 